
Gurobi 8.1.1 (win64) logging started 11/25/19 23:50:46

Changed value of parameter LogFile to logs/full/qp/full-07-30-1.log
   Prev: gurobi.log  Default: 
Changed value of parameter LogToConsole to 0
   Prev: 1  Min: 0  Max: 1  Default: 1
Changed value of parameter TimeLimit to 3600.0
   Prev: 1e+100  Min: 0.0  Max: 1e+100  Default: 1e+100
Optimize a model with 1 rows, 1219 columns and 1 nonzeros
Model has 21 quadratic constraints
Variable types: 0 continuous, 1219 integer (1219 binary)
Coefficient statistics:
  Matrix range     [1e+00, 1e+00]
  QMatrix range    [1e+00, 1e+00]
  Objective range  [1e+00, 1e+00]
  Bounds range     [1e+00, 1e+00]
  RHS range        [1e+00, 1e+00]
  QRHS range       [1e+00, 1e+00]
Found heuristic solution: objective 1219.0000000
Presolve removed 1 rows and 1 columns
Presolve time: 0.78s
Presolved: 0 rows, 1218 columns, 0 nonzeros
Variable types: 0 continuous, 1218 integer (1218 binary)

Root relaxation: objective 1.000000e+00, 0 iterations, 0.09 seconds

    Nodes    |    Current Node    |     Objective Bounds      |     Work
 Expl Unexpl |  Obj  Depth IntInf | Incumbent    BestBd   Gap | It/Node Time

     0     0    2.00000    0    2 1219.00000    2.00000   100%     -    1s
H    0     0                     124.0000000    2.00000  98.4%     -    1s
     0     0    2.00000    0    2  124.00000    2.00000  98.4%     -    1s
H    0     0                      13.0000000    2.00000  84.6%     -    2s
H    0     0                      12.0000000    2.00000  83.3%     -    2s
     0     2    2.00000    0    2   12.00000    2.00000  83.3%     -    2s
    61    27    2.00000   11    -   12.00000    2.00000  83.3%   1.6    5s
   131    55    2.00000   22    -   12.00000    2.00000  83.3%   1.6   10s
   173    68    2.00000   29    -   12.00000    2.00000  83.3%   1.6   15s
   217    83    2.00000   34    -   12.00000    2.00000  83.3%   1.6   20s
   253    99    2.00000   38    -   12.00000    2.00000  83.3%   1.6   25s
H  270   106                      11.0000000    2.00000  81.8%   1.6   27s
   284   107    3.00000   40    -   11.00000    2.00000  81.8%   1.6   30s
   308   120    2.00000   44    -   11.00000    2.00000  81.8%   1.6   35s
   333   129    2.00000   48    -   11.00000    2.00000  81.8%   1.6   40s
   373   145    2.00000   54    -   11.00000    2.00000  81.8%   1.6   46s
   399   156    2.00000   59    -   11.00000    2.00000  81.8%   1.6   52s
   415   164    2.00000   62    -   11.00000    2.00000  81.8%   1.6   56s
   443   172    2.00000   68    -   11.00000    2.00000  81.8%   1.6   61s
   463   180    2.00000   72    -   11.00000    2.00000  81.8%   1.6   67s
   481   186    2.00000   76    -   11.00000    2.00000  81.8%   1.6   70s
   511   199    2.00000   82    -   11.00000    2.00000  81.8%   1.6   78s
   529   207    2.00000   86    -   11.00000    2.00000  81.8%   1.6   82s
   555   215    2.00000   92    -   11.00000    2.00000  81.8%   1.6   86s
   565   227    2.00000   93    -   11.00000    2.00000  81.8%   1.6   94s
   589   231    2.00000  100    -   11.00000    2.00000  81.8%   1.6   99s
   601   242    2.00000  101    -   11.00000    2.00000  81.8%   1.6  105s
   641   247    2.00000  112    -   11.00000    2.00000  81.8%   1.6  112s
   671   266    2.00000  119    -   11.00000    2.00000  81.8%   1.6  120s
   705   280    2.00000  127    -   11.00000    2.00000  81.8%   1.6  131s
   735   296    2.00000  134    -   11.00000    2.00000  81.8%   1.6  139s
   759   310    2.00000  139    -   11.00000    2.00000  81.8%   1.6  149s
   789   331    3.00000  172    -   11.00000    2.00000  81.8%   1.6  150s
   797   321    2.00000  148    -   11.00000    2.00000  81.8%   1.6  160s
   841   339    2.00000  159    -   11.00000    2.00000  81.8%   1.6  170s
   863   360    2.00000  163    -   11.00000    2.00000  81.8%   1.6  180s
   899   370    2.00000  171    -   11.00000    2.00000  81.8%   1.5  194s
   906   374    2.00000  174    -   11.00000    2.00000  81.8%   1.5  195s
   943   387    2.00000  183    -   11.00000    2.00000  81.8%   1.5  206s
   973   408    2.00000  189    -   11.00000    2.00000  81.8%   1.5  220s
  1013   422    2.00000  198    -   11.00000    2.00000  81.8%   1.5  235s
  1061   441    2.00000  210    -   11.00000    2.00000  81.8%   1.5  249s
  1089   464    2.00000  217    -   11.00000    2.00000  81.8%   1.5  265s
  1133   477    2.00000  228    -   11.00000    2.00000  81.8%   1.5  281s
  1179   498    2.00000  239    -   11.00000    2.00000  81.8%   1.5  296s
  1209   520    2.00000  245    -   11.00000    2.00000  81.8%   1.5  313s
  1253   534    2.00000  255    -   11.00000    2.00000  81.8%   1.5  333s
  1299   555    2.00000  267    -   11.00000    2.00000  81.8%   1.5  354s
  1345   577    2.00000  278    -   11.00000    2.00000  81.8%   1.5  375s
  1393   599    2.00000  290    -   11.00000    2.00000  81.8%   1.5  395s
  1437   622    2.00000  300    -   11.00000    2.00000  81.8%   1.5  418s
  1483   643    2.00000  311    -   11.00000    2.00000  81.8%   1.5  438s
  1523   665    2.00000  320    -   11.00000    2.00000  81.8%   1.5  462s
  1575   684    2.00000  333    -   11.00000    2.00000  81.8%   1.5  484s
  1578   686    2.00000  334    -   11.00000    2.00000  81.8%   1.5  485s
  1615   709    2.00000  342    -   11.00000    2.00000  81.8%   1.5  510s
  1665   728    2.00000  354    -   11.00000    2.00000  81.8%   1.5  537s
  1719   752    2.00000  367    -   11.00000    2.00000  81.8%   1.5  565s
  1773   778    2.00000  380    -   11.00000    2.00000  81.8%   1.5  594s
  1827   804    2.00000  393    -   11.00000    2.00000  81.8%   1.5  625s
  1881   830    2.00000  406    -   11.00000    2.00000  81.8%   1.5  656s
  1935   856    2.00000  419    -   11.00000    2.00000  81.8%   1.5  687s
  1989   882    2.00000  432    -   11.00000    2.00000  81.8%   1.5  785s
  2039   908    2.00000  445    -   11.00000    2.00000  81.8%   1.5  823s
  2091   932    2.00000  457    -   11.00000    2.00000  81.8%   1.5  859s
H 2126   963                       8.0000000    2.00000  75.0%   1.5  860s
  2151   957    2.00000  472    -    8.00000    2.00000  75.0%   1.5  894s
  2209   986    2.00000  486    -    8.00000    2.00000  75.0%   1.5  931s
  2263  1014    2.00000  499    -    8.00000    2.00000  75.0%   1.5  968s
  2321  1040    2.00000  512    -    8.00000    2.00000  75.0%   1.5 1004s
  2357  1072    3.00000  548    -    8.00000    2.00000  75.0%   1.5 1005s
  2371  1068    2.00000  522    -    8.00000    2.00000  75.0%   1.5 1044s
  2431  1092    2.00000  537    -    8.00000    2.00000  75.0%   1.5 1086s
  2499  1121    2.00000  555    -    8.00000    2.00000  75.0%   1.5 1128s
  2555  1154    2.00000  567    -    8.00000    2.00000  75.0%   1.5 1170s
  2623  1181    2.00000  584    -    8.00000    2.00000  75.0%   1.5 1211s
  2687  1214    2.00000  599    -    8.00000    2.00000  75.0%   1.5 1257s
  2757  1245    2.00000  617    -    8.00000    2.00000  75.0%   1.5 1300s
  2819  1279    2.00000  631    -    8.00000    2.00000  75.0%   1.5 1346s
  2885  1309    2.00000  646    -    8.00000    2.00000  75.0%   1.5 1397s
  2955  1341    2.00000  664    -    8.00000    2.00000  75.0%   1.5 1444s
  3017  1391    3.00000  710    -    8.00000    2.00000  75.0%   1.5 1445s
  3023  1375    2.00000  680    -    8.00000    2.00000  75.0%   1.5 1493s
  3089  1425    3.00000  728    -    8.00000    2.00000  75.0%   1.5 1495s
  3093  1408    2.00000  697    -    8.00000    2.00000  75.0%   1.5 1545s
  3169  1442    2.00000  717    -    8.00000    2.00000  75.0%   1.5 1594s
  3188  1452    2.00000  726    -    8.00000    2.00000  75.0%   1.5 1595s
  3235  1479    2.00000  732    -    8.00000    2.00000  75.0%   1.5 1644s
  3270  1512    3.00000  764    -    8.00000    2.00000  75.0%   1.5 1645s
  3307  1511    2.00000  749    -    8.00000    2.00000  75.0%   1.5 1697s
  3385  1546    2.00000  768    -    8.00000    2.00000  75.0%   1.5 1752s
  3459  1584    2.00000  786    -    8.00000    2.00000  75.0%   1.5 1807s
  3537  1620    2.00000  805    -    8.00000    2.00000  75.0%   1.5 1873s
  3617  1658    2.00000  825    -    8.00000    2.00000  75.0%   1.5 1976s
  3699  1697    2.00000  845    -    8.00000    2.00000  75.0%   1.5 2113s
  3783  1737    2.00000  866    -    8.00000    2.00000  75.0%   1.5 2262s
  3859  1778    2.00000  884    -    8.00000    2.00000  75.0%   1.5 2453s
  3902  1800    2.00000  905    -    8.00000    2.00000  75.0%   1.5 2455s
  3947  1815    2.00000  907    -    8.00000    2.00000  75.0%   1.5 2864s
  3978  1831    2.00000  922    -    8.00000    2.00000  75.0%   1.5 2865s
  4025  1858    2.00000  925    -    8.00000    2.00000  75.0%   1.5 3272s
  4103  1896    2.00000  944    -    8.00000    2.00000  75.0%   1.5 3652s

Explored 4105 nodes (6155 simplex iterations) in 3687.46 seconds
Thread count was 4 (of 4 available processors)

Solution count 6: 8 11 12 ... 1219

Time limit reached
Best objective 8.000000000000e+00, best bound 2.000000000000e+00, gap 75.0000%
Warning: Q constraint 0 doesn't have a name
